DATASET = "thpack7";
INSTANCE = "042";

WIDTH = 233;
HEIGHT = 220;
LENGTH = 587;

NO_OF_SHAPES = 20;
size = [|
  76,74,50 |
  86,40,29 |
  66,55,48 |
  75,57,37 |
  102,83,29 |
  74,58,52 |
  89,65,36 |
  99,68,67 |
  80,78,66 |
  65,57,45 |
  112,59,30 |
  79,75,68 |
  97,48,30 |
  73,70,31 |
  90,83,44 |
  101,93,64 |
  89,82,78 |
  85,54,26 |
  57,34,29 |
  78,71,68 |
|];

verticality = [|
  1,1,1 |
  0,1,1 |
  1,1,1 |
  0,1,1 |
  0,0,1 |
  1,1,1 |
  0,1,1 |
  1,1,1 |
  1,1,1 |
  1,1,1 |
  0,1,1 |
  1,1,1 |
  0,1,1 |
  0,0,1 |
  0,1,1 |
  1,1,1 |
  1,1,1 |
  0,0,1 |
  1,1,1 |
  1,1,1 |
|];

box_count = [
  8,
  7,
  5,
  4,
  8,
  4,
  5,
  5,
  5,
  5,
  3,
  8,
  11,
  3,
  4,
  4,
  8,
  4,
  3,
  4,
];
